sifdecoder -A pc64.lnx.gfo -st   A5NNSNSL

 Problem name: A5NNSNSL

 Double precision version will be formed

 The objective function uses 2 linear groups
 
 There are 20004 linear equality constraints
 
 There are 15004 free variables
 There are 10000 variables bounded only from below 
 There are 35008 fixed variables
 
 
 File successfully decoded
 CUTEST: tools (double precision version) compiled successfully
 CUTEst: ipopt (double precision version) compiled successfully

******************************************************************************
This program contains Ipopt, a library for large-scale nonlinear optimization.
 Ipopt is released as open source code under the Eclipse Public License (EPL).
         For more information visit http://projects.coin-or.org/Ipopt
******************************************************************************

This is Ipopt version trunk, running with linear solver ma57.

Number of nonzeros in equality constraint Jacobian...:    76091
Number of nonzeros in inequality constraint Jacobian.:        0
Number of nonzeros in Lagrangian Hessian.............:    30004

Total number of variables............................:    25004
                     variables with only lower bounds:    10000
                variables with lower and upper bounds:        0
                     variables with only upper bounds:        0
Total number of equality constraints.................:    20004
Total number of inequality constraints...............:        0
        inequality constraints with only lower bounds:        0
   inequality constraints with lower and upper bounds:        0
        inequality constraints with only upper bounds:        0

iter    objective    inf_pr   inf_du lg(mu)  ||d||  lg(rg) alpha_du alpha_pr  ls
   0  4.9999900e-01 9.92e+01 6.37e-01  -1.0 0.00e+00    -  0.00e+00 0.00e+00   0
   1  5.3549058e-01 9.90e+01 1.11e+00  -1.0 1.31e+02  -4.0 9.93e-04 2.01e-03h  1
   2  6.0042693e-01 9.89e+01 1.10e+00  -1.0 8.22e+01  -4.5 1.75e-03 1.63e-03f  1
   3  6.9909277e-01 9.87e+01 1.10e+00  -1.0 5.18e+01  -5.0 1.89e-03 1.99e-03f  1
   4  8.0589141e-01 9.85e+01 1.10e+00  -1.0 3.49e+01  -5.4 2.07e-03 1.98e-03f  1
   5  9.4463366e-01 9.82e+01 1.09e+00  -1.0 3.27e+01  -5.9 2.38e-03 2.43e-03f  1
   6  1.1618034e+00 9.79e+01 1.09e+00  -1.0 1.63e+01  -6.4 3.06e-03 3.62e-03f  1
   7  1.4410904e+00 9.75e+01 1.60e+00  -1.0 1.46e+01  -6.9 3.37e-03 4.40e-03f  1
   8  1.8969747e+00 9.68e+01 1.84e+00  -1.0 1.46e+01  -7.3 5.33e-03 6.73e-03f  1
   9  2.6054561e+00 9.59e+01 2.46e+00  -1.0 1.45e+01  -7.8 6.84e-03 9.62e-03f  1
iter    objective    inf_pr   inf_du lg(mu)  ||d||  lg(rg) alpha_du alpha_pr  ls
  10  3.6829793e+00 9.46e+01 2.43e+00  -1.0 1.43e+01  -8.3 1.03e-02 1.33e-02f  1
  11  6.7323704e+00 9.16e+01 4.12e+00  -1.0 1.41e+01  -8.8 1.80e-02 3.21e-02f  1
  12  2.1333509e+02 2.77e+01 8.70e+01  -1.0 1.37e+01  -9.2 3.20e-02 6.98e-01f  1
  13  2.0063786e+02 2.49e+01 8.13e+01  -1.0 4.29e+01  -9.7 4.98e-01 9.90e-02f  1
  14  2.1876935e+02 1.25e+01 4.05e+01  -1.0 6.09e+00 -10.2 3.94e-01 4.96e-01f  1
  15  2.6477618e+02 6.15e+00 1.20e+02  -1.0 2.93e+00 -10.7 1.50e-01 5.10e-01f  1
  16  2.9132390e+02 3.85e+00 6.14e+01  -1.0 2.14e+00 -11.2 2.08e-01 3.74e-01h  1
  17  3.1246121e+02 2.40e+00 1.30e+03  -1.0 1.34e+00 -11.6 5.73e-01 3.76e-01h  1
  18  3.3457177e+02 1.20e+00 3.23e+03  -1.0 1.56e+00 -12.1 8.80e-01 4.99e-01h  1
  19  3.5203924e+02 3.90e-01 7.27e+04  -1.0 2.35e+01 -12.6 5.99e-02 6.76e-01f  1
iter    objective    inf_pr   inf_du lg(mu)  ||d||  lg(rg) alpha_du alpha_pr  ls
  20  3.5501020e+02 2.60e-01 4.86e+04  -1.0 1.37e+01 -13.1 3.66e-01 3.32e-01f  1
  21  3.6021216e+02 4.06e-02 7.56e+03  -1.0 2.15e+01 -13.5 8.95e-01 8.44e-01f  1
  22  3.6410270e+02 4.35e-05 1.57e+03  -1.0 2.12e+02 -14.0 2.32e-01 1.00e+00f  1
  23  3.6653020e+02 2.48e-05 1.50e+03  -1.0 5.23e+02 -14.5 7.04e-01 1.00e+00f  1
  24  3.7090324e+02 1.71e-05 1.57e+03  -1.0 1.06e+03 -15.0 5.21e-01 9.64e-01f  1
  25  3.7276023e+02 1.57e-05 6.76e+03  -1.0 1.56e+04  -9.1 6.27e-01 1.13e-01f  1
  26  3.8248651e+02 1.27e-05 4.12e+03  -1.0 3.60e+03  -9.6 3.99e-01 3.43e-01f  1
  27  4.0458491e+02 1.66e-05 1.46e+04  -1.0 1.06e+05 -10.1 8.71e-01 1.00e+00f  1
Reallocating memory for MA57: lfact (2832065)
Reallocating memory for MA57: lfact (3103028)
  28  4.0439170e+02 6.90e-06 1.33e+02  -1.0 1.95e+00  -5.1 1.00e+00 8.91e-01f  1
  29  4.0287947e+02 6.08e-06 1.01e-05  -1.0 3.80e+00  -5.6 1.00e+00 1.00e+00h  1
iter    objective    inf_pr   inf_du lg(mu)  ||d||  lg(rg) alpha_du alpha_pr  ls
  30  4.3275182e+01 4.63e-09 3.86e-07  -3.8 4.82e-01  -6.1 1.00e+00 1.00e+00f  1
Reallocating memory for MA57: lfact (13026235)
  31  1.0262493e+01 1.52e-10 5.91e+05  -5.7 7.14e-01  -6.6 1.63e-01 9.95e-01f  1
  32  4.1540562e+00 3.45e-10 3.93e+02  -5.7 2.34e-01  -7.1 9.72e-01 1.00e+00f  1
  33  1.1049130e+00 2.84e-10 3.54e+01  -5.7 2.00e-01  -7.5 1.00e+00 9.44e-01f  1
  34  2.0407967e-01 4.05e-10 1.13e-04  -5.7 4.35e-02  -2.6 1.00e+00 1.00e+00f  1
  35  3.5803014e-02 2.70e-10 2.64e-05  -5.7 3.05e-02  -3.1 1.00e+00 1.00e+00f  1
  36  8.3019320e-03 1.22e-10 3.28e-06  -5.7 1.14e-02  -3.5 1.00e+00 1.00e+00f  1
  37  3.4335154e-03 2.45e-10 5.04e+03  -8.6 4.87e-03  -4.0 9.36e-01 4.41e-01f  1
  38 -2.5271197e-02 3.04e-09 5.44e+01  -8.6 4.49e-03  -2.7 1.00e+00 4.41e-01f  1
  39 -3.7166178e-02 4.10e-09 1.37e-01  -8.6 3.55e-03  -2.3 1.00e+00 9.98e-01f  1
iter    objective    inf_pr   inf_du lg(mu)  ||d||  lg(rg) alpha_du alpha_pr  ls
  40 -3.6969011e-02 4.09e-09 1.58e+01  -8.6 1.07e-03  -2.7 3.45e-01 7.81e-03h  8
  41 -9.8454348e-03 3.17e-09 2.21e+01  -8.6 1.15e-03  -3.2 2.45e-01 1.00e+00h  1
  42 -6.4961685e-03 2.83e-09 4.99e+01  -8.6 3.33e-04  -3.7 1.83e-01 1.00e+00h  1
  43 -5.1045234e-03 2.66e-09 7.04e+01  -8.6 5.19e-04  -4.2 1.47e-01 1.00e+00h  1
  44 -4.4051244e-03 3.89e-09 8.27e+01  -8.6 1.55e-03  -4.6 1.50e-01 1.00e+00h  1
  45 -3.9056107e-03 4.58e-09 8.80e+01  -8.6 4.60e-03  -5.1 1.64e-01 1.00e+00h  1
  46 -3.8971911e-03 4.86e-09 8.91e+01  -8.6 1.36e-02  -5.6 1.77e-01 1.00e+00h  1
  47 -3.5565390e-03 4.90e-09 8.93e+01  -8.6 3.90e-02  -6.1 1.80e-01 1.00e+00h  1
  48 -3.7285070e-03 4.88e-09 8.77e+01  -8.6 1.06e-01  -6.6 1.86e-01 1.00e+00h  1
  49 -3.6066786e-03 4.76e-09 8.66e+01  -8.6 2.63e-01  -7.0 1.92e-01 1.00e+00h  1
iter    objective    inf_pr   inf_du lg(mu)  ||d||  lg(rg) alpha_du alpha_pr  ls
  50 -3.3403417e-03 4.58e-09 8.48e+01  -8.6 5.60e-01  -7.5 1.95e-01 1.00e+00h  1
  51 -3.3331212e-03 4.35e-09 8.30e+01  -8.6 1.03e+00  -8.0 2.02e-01 1.00e+00h  1
  52 -3.7430756e-03 1.35e-09 9.27e+01  -8.6 1.87e+00  -8.5 2.41e-01 1.00e+00H  1
  53 -3.8287823e-03 1.29e-09 1.10e+02  -8.6 6.09e+00  -8.9 1.95e-01 1.00e+00H  1
  54 -6.7402981e-03 1.75e-09 1.33e+02  -8.6 2.52e+01  -9.4 2.05e-01 1.00e+00H  1
  55 -4.2690100e-03 2.11e-09 1.19e+02  -8.6 6.93e+00  -9.0 1.71e-01 5.00e-01h  2
  56 -4.8928748e-03 1.62e-09 1.37e+02  -8.6 3.16e+01  -9.5 2.32e-01 1.00e+00H  1
  57 -4.0770250e-03 1.22e-09 1.23e+02  -8.6 8.00e+00  -9.0 3.25e-01 1.00e+00H  1
  58 -3.5056308e-03 1.24e-09 8.86e+01  -8.6 4.08e+01  -9.5 1.91e-01 5.71e-02h  4
  59 -4.2439774e-03 1.22e-09 1.09e+02  -8.6 2.35e+01  -9.1 1.92e-01 1.00e+00H  1
iter    objective    inf_pr   inf_du lg(mu)  ||d||  lg(rg) alpha_du alpha_pr  ls
  60 -3.6807674e-03 1.18e-09 4.68e+01  -8.6 5.30e+01  -9.6 4.23e-01 4.37e-02h  3
  61 -3.4279200e-03 1.26e-09 4.21e+01  -8.6 2.33e+01  -9.1 1.01e-01 1.01e-01s 19
  62 -2.2352004e-04 2.39e-09 3.38e+01  -8.6 7.09e+01  -9.6 1.97e-01 1.97e-01s 19
  63 -3.7655695e-04 2.34e-09 2.61e+01  -8.6 1.25e+01  -9.2 2.27e-01 2.27e-01s 19
  64  1.0795212e-03 2.82e-09 2.42e+01  -8.6 9.70e+01  -9.7 7.37e-02 7.37e-02s 19
  65  4.6157754e-04 2.65e-09 1.45e+01  -8.6 1.48e+01  -9.2 4.02e-01 4.02e-01s 19
  66  1.6892624e-03 3.02e-09 1.39e+01  -8.6 1.43e+02  -9.7 4.01e-02 4.01e-02s 19
  67  3.9019833e-04 3.61e-09 2.09e+00  -8.6 1.75e+01  -9.3 8.50e-01 8.50e-01s 19
  68  1.5088801e-03 3.56e-09 2.04e+00  -8.6 2.50e+02  -9.8 1.95e-02 1.95e-02s 19
  69  1.0961111e-03 6.04e-09 6.94e-01  -8.6 2.08e+01  -9.4 6.61e-01 6.61e-01s 19
iter    objective    inf_pr   inf_du lg(mu)  ||d||  lg(rg) alpha_du alpha_pr  ls
  70  3.7056316e-05 4.81e-09 5.63e-01  -8.6 3.16e-01  -6.2 1.88e-01 1.88e-01s 19
  71 -1.4133509e-03 3.06e-09 3.80e-01  -8.6 6.52e-02  -4.9 3.26e-01 3.26e-01s 19
  72r-1.4133509e-03 3.06e-09 1.00e+03  -8.5 0.00e+00  -4.5 0.00e+00 0.00e+00R  1
  73r-2.3670164e-03 2.88e-09 9.96e+02  -8.5 9.42e-02    -  2.84e-03 3.66e-03f  1
  74r-2.4658282e-03 2.63e-09 9.91e+02  -8.5 3.85e-02    -  2.37e-03 5.16e-03f  1
  75r-2.5010805e-03 2.46e-09 9.88e+02  -8.5 2.68e-02    -  2.94e-03 3.46e-03f  1
  76r-2.5001612e-03 2.36e-09 9.85e+02  -8.5 2.15e-02    -  2.96e-03 2.55e-03f  1
  77r-2.5070513e-03 2.27e-09 9.83e+02  -8.5 1.83e-02    -  3.21e-03 2.33e-03f  1
  78r-2.5361121e-03 2.19e-09 9.81e+02  -8.5 1.58e-02    -  1.52e-03 2.21e-03f  1
  79r-2.5916998e-03 2.07e-09 1.09e+03  -8.5 1.44e-02    -  1.40e-03 3.70e-03f  1
iter    objective    inf_pr   inf_du lg(mu)  ||d||  lg(rg) alpha_du alpha_pr  ls
  80r-2.6019665e-03 2.07e-09 1.08e+03  -8.5 1.28e-02    -  4.48e-03 1.60e-03f  1
  81r-2.6098419e-03 2.06e-09 1.08e+03  -8.5 1.12e-02    -  3.44e-03 2.97e-03f  1
  82r-2.6251988e-03 2.04e-09 1.08e+03  -8.5 9.84e-03    -  3.28e-03 4.66e-03f  1
  83r-2.6441802e-03 2.03e-09 1.12e+03  -8.5 8.44e-03    -  2.19e-03 4.84e-03f  1
  84r-2.6533764e-03 2.02e-09 1.12e+03  -8.5 7.44e-03    -  2.88e-03 2.96e-03f  1
  85r-2.6616915e-03 2.02e-09 1.12e+03  -8.5 6.74e-03    -  2.45e-03 1.84e-03f  1
  86r-2.7462832e-03 2.01e-09 1.12e+03  -8.5 6.28e-03    -  3.96e-04 2.92e-03f  1
  87r-2.7478369e-03 2.01e-09 1.11e+03  -8.5 5.95e-03    -  5.53e-03 4.14e-04h  1
  88r-2.7913557e-03 1.99e-09 1.11e+03  -8.5 5.42e-03    -  2.52e-04 2.62e-03f  1
  89r-2.7921403e-03 1.99e-09 1.11e+03  -8.5 5.18e-03    -  5.85e-03 2.55e-04h  2
iter    objective    inf_pr   inf_du lg(mu)  ||d||  lg(rg) alpha_du alpha_pr  ls
  90r-2.8037520e-03 1.98e-09 1.11e+03  -8.5 4.72e-03    -  4.92e-04 1.82e-03f  1
  91r-2.8048662e-03 1.98e-09 1.10e+03  -8.5 4.55e-03    -  4.58e-03 1.22e-03h  1
  92r-2.8101645e-03 1.97e-09 1.10e+03  -8.5 4.16e-03    -  1.99e-03 2.61e-03f  1
  93r-2.8186471e-03 1.94e-09 1.21e+03  -8.5 3.88e-03    -  4.37e-03 7.60e-03f  1
  94r-2.8228415e-03 1.93e-09 1.21e+03  -8.5 3.25e-03    -  3.24e-03 3.02e-03f  1
  95r-2.8464615e-03 1.89e-09 1.22e+03  -8.5 2.98e-03    -  1.33e-03 3.21e-03f  1
  96r-2.8598977e-03 1.89e-09 1.22e+03  -8.5 2.79e-03    -  2.61e-03 3.41e-03f  1
  97r-2.8615103e-03 1.89e-09 1.22e+03  -8.5 2.57e-03    -  4.73e-03 1.34e-03h  1
  98r-2.8682787e-03 1.87e-09 1.22e+03  -8.5 2.37e-03    -  2.86e-03 2.25e-03f  1
  99r-2.9079068e-03 1.80e-09 1.22e+03  -8.5 2.22e-03    -  5.02e-04 3.19e-03f  1
iter    objective    inf_pr   inf_du lg(mu)  ||d||  lg(rg) alpha_du alpha_pr  ls
 100r-2.9082336e-03 1.80e-09 1.21e+03  -8.5 2.11e-03    -  6.10e-03 6.72e-04h  1
 101r-2.9098369e-03 1.79e-09 1.21e+03  -8.5 1.93e-03    -  9.60e-04 7.87e-04h  2
 102r-2.9115255e-03 1.79e-09 1.21e+03  -8.5 1.88e-03    -  4.41e-03 2.13e-03h  1
 103r-2.9234532e-03 1.76e-09 1.21e+03  -8.5 1.72e-03    -  5.19e-04 2.02e-03f  1
 104r-2.9228708e-03 1.76e-09 1.20e+03  -8.5 1.66e-03    -  5.43e-03 1.24e-03h  1
 105 -2.9622554e-03 1.76e-09 1.07e+05  -8.6 5.18e-02  -4.9 2.55e-04 1.00e-05f  1
 106 -5.4328898e-03 1.73e-09 1.07e+05  -8.6 1.48e-01  -5.4 6.37e-06 6.28e-04f  1
 107 -7.7888336e-03 1.73e-09 1.07e+05  -8.6 3.79e-01  -5.9 7.89e-05 5.96e-04f  1
 108 -1.0597424e-02 1.73e-09 1.07e+05  -8.6 7.38e-01  -6.4 3.35e-04 7.09e-04f  1
 109 -1.3873155e-02 1.73e-09 1.07e+05  -8.6 1.07e+00  -6.8 1.25e-03 8.29e-04f  1
iter    objective    inf_pr   inf_du lg(mu)  ||d||  lg(rg) alpha_du alpha_pr  ls
 110 -2.0366323e-02 1.73e-09 1.07e+05  -8.6 1.28e+00  -7.3 2.33e-03 1.65e-03f  1
 111 -2.7892150e-02 2.46e-09 1.07e+05  -8.6 2.30e+00  -7.8 8.69e-04 1.94e-03f  1
 112 -3.4731475e-02 3.12e-09 1.06e+05  -8.6 4.90e+00  -8.3 1.42e-03 1.80e-03f  1
 113 -4.1621586e-02 3.77e-09 1.06e+05  -8.6 7.32e+00  -8.8 1.14e-03 1.86e-03f  1
 114 -4.7672901e-02 4.32e-09 1.06e+05  -8.6 7.81e+00  -9.2 1.79e-03 1.71e-03f  1
 115 -5.3372723e-02 4.82e-09 1.06e+05  -8.6 5.48e+00  -9.7 1.39e-03 1.75e-03f  1
 116 -5.7574782e-02 5.17e-09 1.05e+05  -8.6 1.44e+00 -10.2 1.41e-02 1.53e-03f  1
 117 -5.7908520e-02 5.21e-09 9.93e+04  -8.6 1.09e+01 -10.7 5.10e-02 3.70e-04f  1
 118 -5.8061015e-02 5.22e-09 2.03e+04  -8.6 4.23e+00 -11.1 7.98e-01 1.31e-03f  1
 119 -5.8701653e-02 5.24e-09 1.02e+02  -8.6 7.57e+00 -11.6 1.00e+00 1.23e-01h  1
iter    objective    inf_pr   inf_du lg(mu)  ||d||  lg(rg) alpha_du alpha_pr  ls
 120 -5.8659679e-02 5.24e-09 1.30e+06  -8.6 1.41e+02 -10.3 9.07e-06 7.67e-04h  1
 121 -5.8656857e-02 5.24e-09 1.19e+06  -8.6 3.05e+02 -10.8 1.93e-04 5.11e-05h  1
 122 -5.8656843e-02 5.24e-09 1.11e+06  -8.6 1.14e+02 -10.3 2.54e-04 2.46e-07f 12
In iteration 122, 1 Slack too small, adjusting variable bound
 123 -5.8559421e-02 5.23e-09 1.50e+06  -8.6 4.29e+01  -9.9 2.83e-04 1.76e-03h  1
 124 -5.8177271e-02 5.19e-09 1.99e+06  -8.6 1.78e+02 -10.4 2.14e-03 6.93e-03h  1
 125 -5.8177050e-02 5.19e-09 1.86e+06  -8.6 4.83e+01 -10.0 9.33e-03 4.03e-06h 16
 126 -5.0942291e-02 4.51e-09 1.52e+06  -8.6 9.16e+02 -10.4 9.81e-03 1.32e-01h  1
 127 -4.1728887e-02 1.44e-07 1.52e+06  -8.6 7.78e+05 -10.0 8.34e-06 1.84e-03h  1
 128 -3.8823902e-02 1.49e-07 1.52e+06  -8.6 2.81e+05  -9.6 4.02e-04 1.51e-04h  3
 129 -3.7274252e-02 1.52e-07 1.52e+06  -8.6 8.53e+04  -9.2 2.88e-04 9.84e-05h  4
iter    objective    inf_pr   inf_du lg(mu)  ||d||  lg(rg) alpha_du alpha_pr  ls
 130 -3.7205058e-02 1.52e-07 1.52e+06  -8.6 3.32e+05  -9.6 1.86e-04 3.36e-06h 10
 131 -3.7165385e-02 1.52e-07 1.52e+06  -8.6 9.74e+04  -9.2 3.43e-04 2.46e-06h 10
 132 -3.3151441e-02 1.59e-07 1.52e+06  -8.6 3.95e+05  -9.7 1.81e-04 1.81e-04s 14
 133 -2.5094855e-02 1.74e-07 1.51e+06  -8.6 1.12e+05  -9.3 4.84e-04 4.84e-04s 14
 134 -2.0526326e-02 1.82e-07 1.51e+06  -8.6 4.77e+05  -9.7 1.87e-04 1.87e-04s 14
 135 -1.3429567e-02 1.95e-07 1.51e+06  -8.6 1.28e+05  -9.3 4.12e-04 4.12e-04s 14
 136 -2.3463019e-03 2.14e-07 1.51e+06  -8.6 5.85e+05  -9.8 4.07e-04 4.07e-04s 14
 137  8.4459026e-03 2.33e-07 1.51e+06  -8.6 1.47e+05  -9.4 6.08e-04 6.08e-04s 14
 138  1.4288400e-02 2.42e-07 1.51e+06  -8.6 7.31e+05  -9.8 1.85e-04 1.85e-04s 14
 139  2.2824528e-02 2.57e-07 1.51e+06  -8.6 1.70e+05  -9.4 4.65e-04 4.65e-04s 14
iter    objective    inf_pr   inf_du lg(mu)  ||d||  lg(rg) alpha_du alpha_pr  ls
 140  2.8210506e-02 2.65e-07 1.51e+06  -8.6 9.41e+05  -9.9 1.37e-04 1.37e-04s 14
 141  4.3406003e-02 2.99e-07 1.51e+06  -8.6 1.96e+05  -9.5 8.02e-04 8.02e-04s 14
 142r 4.3406003e-02 2.99e-07 1.00e+03  -6.5 0.00e+00  -9.9 0.00e+00 0.00e+00R  1
 143r-2.1549138e-02 3.72e-08 1.01e+03  -6.5 4.04e-02    -  6.83e-03 9.91e-04f  1
 144 -2.2178610e-02 3.72e-08 1.06e+05  -8.6 2.10e+03 -10.4 1.00e-02 1.10e-04f  1
 145 -2.9643618e-02 3.66e-08 1.06e+05  -8.6 1.98e+03 -10.9 3.55e-02 1.47e-03f  1
 146 -4.4896192e-02 3.36e-08 1.02e+05  -8.6 2.06e+01 -11.4 3.50e-02 7.22e-03f  1
 147 -5.2598507e-02 3.06e-08 9.99e+04  -8.6 2.09e+01 -11.9 2.06e-02 7.63e-03f  1
 148 -5.7006413e-02 2.74e-08 9.34e+04  -8.6 1.44e+01 -12.3 6.37e-02 8.03e-03f  1
 149 -5.9443174e-02 2.06e-08 4.22e+04  -8.6 6.40e+00 -12.8 5.47e-01 1.74e-02f  1
iter    objective    inf_pr   inf_du lg(mu)  ||d||  lg(rg) alpha_du alpha_pr  ls
 150 -6.0395012e-02 6.00e-09 4.48e+03  -8.6 1.92e+00 -13.3 1.00e+00 4.69e-02f  1
 151 -6.0394923e-02 6.00e-09 5.71e+04  -8.6 1.46e+02 -10.2 5.12e-08 1.59e-06h  3
 152 -6.0368269e-02 5.99e-09 1.42e+05  -8.6 2.23e+02 -10.6 1.69e-05 4.64e-04h  1
 153 -6.0368260e-02 5.99e-09 1.42e+05  -8.6 6.25e+02 -11.1 2.30e-04 1.48e-07h 13
 154 -6.0332534e-02 5.99e-09 1.42e+05  -8.6 3.20e+01  -9.8 1.40e-04 6.06e-04h  1
 155 -6.0332524e-02 5.99e-09 1.42e+05  -8.6 4.73e+04 -10.3 3.21e-06 1.30e-07h 20
 156 -6.0204329e-02 6.01e-09 1.42e+05  -8.6 5.31e+06 -10.7 1.84e-08 2.32e-05h  3
 157r-6.0204329e-02 6.01e-09 1.00e+03  -8.2 0.00e+00 -10.3 0.00e+00 3.04e-07R 17
 158r-6.0202495e-02 5.89e-09 1.00e+03  -8.2 5.66e-04    -  1.06e-04 2.23e-03f  1
 159 -6.0525901e-02 5.89e-09 1.03e+05  -8.6 2.66e+00 -10.8 2.72e-02 1.31e-04f  1
iter    objective    inf_pr   inf_du lg(mu)  ||d||  lg(rg) alpha_du alpha_pr  ls
 160 -6.0759250e-02 5.94e-09 6.14e+04  -8.6 1.50e+00 -11.3 4.04e-01 1.59e-03f  1
 161 -6.1032959e-02 5.95e-09 3.21e+03  -8.6 1.05e+00 -11.7 1.00e+00 2.67e-02f  1
 162 -6.1032640e-02 5.95e-09 4.56e+05  -8.6 4.55e+02 -10.4 2.69e-08 5.95e-06h  1
 163 -6.1012544e-02 5.94e-09 4.56e+05  -8.6 5.13e+01 -10.0 9.14e-06 3.47e-04h  2
 164 -6.0992315e-02 5.94e-09 4.56e+05  -8.6 1.52e+02 -10.5 1.51e-04 3.47e-04h  1
 165 -6.0992304e-02 5.94e-09 4.56e+05  -8.6 6.51e+04 -10.0 8.94e-07 7.94e-08h 21
 166 -6.0911008e-02 5.91e-09 4.56e+05  -8.6 7.97e+05 -10.5 3.24e-08 1.06e-04h  7
 167 -6.0771594e-02 5.91e-09 4.56e+05  -8.6 2.60e+05 -10.1 3.87e-06 3.24e-04h  7
 168r-6.0771594e-02 5.91e-09 1.00e+03  -8.2 0.00e+00  -9.7 0.00e+00 2.43e-07R  2
 169r-6.0835216e-02 6.18e-09 9.98e+02  -8.2 6.19e-04    -  3.21e-03 1.11e-03f  1
iter    objective    inf_pr   inf_du lg(mu)  ||d||  lg(rg) alpha_du alpha_pr  ls
 170 -6.1124488e-02 6.21e-09 1.02e+05  -8.6 1.35e+00 -10.1 3.98e-02 1.46e-04f  1
 171 -6.1422100e-02 6.24e-09 2.53e+04  -8.6 8.43e-01 -10.6 7.52e-01 5.70e-03f  1
 172 -6.1522589e-02 6.20e-09 3.69e+03  -8.6 5.22e+00 -11.1 8.56e-01 3.41e-02h  1
 173 -6.1755895e-02 5.67e-09 2.97e+01  -8.6 3.96e+01 -11.6 1.00e+00 6.18e-01h  1
 174 -6.1755801e-02 5.67e-09 2.54e+05  -8.6 3.50e+02 -10.2 3.46e-08 1.74e-06h  2
 175 -6.1729844e-02 5.67e-09 2.46e+05  -8.6 3.42e+01  -9.8 5.59e-05 4.38e-04h  4
 176 -1.6768864e-03 2.62e-10 2.13e+08  -8.6 1.01e+02 -10.3 2.23e-04 1.00e+00h  1
 177 -1.7573170e-03 1.14e-10 1.90e+08  -8.6 3.12e+02 -10.8 8.09e-01 1.08e-01f  1
 178 -3.8420422e-03 1.33e-10 1.46e+07  -8.6 1.17e+02 -10.3 3.61e-01 9.24e-01f  1
 179 -4.3727503e-03 1.22e-10 8.04e+06  -8.6 3.43e+02 -10.8 9.54e-02 4.49e-01f  1
iter    objective    inf_pr   inf_du lg(mu)  ||d||  lg(rg) alpha_du alpha_pr  ls
 180 -4.6039959e-03 3.96e-11 7.47e+06  -8.6 1.03e+03 -11.3 8.62e-01 6.95e-02f  1
 181 -5.5347253e-03 1.04e-10 6.80e+06  -8.6 3.10e+03 -11.8 7.99e-02 8.89e-02f  1
 182 -9.5573761e-03 1.19e-10 7.86e+04  -8.6 1.16e+03 -11.3 8.59e-01 9.88e-01f  1
 183 -1.6020004e-02 1.51e-10 1.53e+05  -8.6 3.48e+03 -11.8 7.77e-01 5.30e-01f  1
 184 -1.6019998e-02 1.31e-10 1.53e+05  -8.6 6.23e+01  -8.7 2.50e-03 2.95e-08f 19
 185 -8.6522409e-03 2.58e-08 1.51e+05  -8.6 4.10e+03  -9.2 8.92e-03 8.92e-03s 16
 186 -8.4314183e-04 5.15e-08 1.50e+05  -8.6 1.43e+03  -8.7 9.70e-03 9.70e-03s 16
 187  7.2402711e-03 7.87e-08 1.48e+05  -8.6 4.59e+03  -9.2 9.64e-03 9.64e-03s 16
 188  1.7189976e-02 1.11e-07 1.46e+05  -8.6 1.59e+03  -8.8 1.26e-02 1.26e-02s 16
 189  2.7453703e-02 1.45e-07 1.45e+05  -8.6 5.14e+03  -9.3 1.24e-02 1.24e-02s 16
iter    objective    inf_pr   inf_du lg(mu)  ||d||  lg(rg) alpha_du alpha_pr  ls
 190  3.9102822e-02 1.83e-07 1.42e+05  -8.6 1.75e+03  -8.8 1.53e-02 1.53e-02s 16
 191  5.1835244e-02 2.25e-07 1.40e+05  -8.6 5.73e+03  -9.3 1.59e-02 1.59e-02s 16
 192  6.6953528e-02 2.73e-07 1.37e+05  -8.6 1.92e+03  -8.9 2.09e-02 2.09e-02s 16
 193  8.0742716e-02 3.18e-07 1.35e+05  -8.6 6.35e+03  -9.4 1.81e-02 1.81e-02s 16
 194  1.0242668e-01 3.87e-07 1.30e+05  -8.6 2.09e+03  -8.9 3.23e-02 3.23e-02s 16
 195  1.1628731e-01 4.33e-07 1.28e+05  -8.6 6.95e+03  -9.4 1.99e-02 1.99e-02s 16
 196r 1.1628731e-01 4.33e-07 1.00e+03  -6.4 0.00e+00  -9.0 0.00e+00 0.00e+00R  1
 197r 2.2795045e-02 1.47e-08 9.97e+02  -6.4 2.79e-01    -  5.05e-03 9.84e-04f  1
 198r 2.0092794e-02 1.30e-08 9.93e+02  -6.4 2.02e-01    -  3.48e-03 3.94e-03f  1
 199r 1.3275349e-02 1.69e-08 9.90e+02  -6.4 1.45e-01    -  6.06e-03 2.50e-02f  1
iter    objective    inf_pr   inf_du lg(mu)  ||d||  lg(rg) alpha_du alpha_pr  ls
 200r 6.6712244e-03 6.35e-09 9.55e+02  -6.4 1.13e-01    -  2.96e-02 1.60e-02f  1
 201r-2.8727518e-03 1.54e-09 9.51e+02  -6.4 1.43e-01    -  4.27e-02 8.08e-02f  1
 202r-4.2491227e-03 1.19e-09 8.25e+02  -6.4 1.32e-01    -  6.72e-02 4.88e-02f  1
 203r-5.6391971e-03 8.97e-10 1.23e+03  -6.4 1.18e-01    -  3.54e-02 7.64e-02f  1
 204r-4.6792295e-03 5.90e-10 2.67e+03  -6.4 1.04e-01    -  7.52e-02 3.78e-01f  1
 205r 4.1058063e-03 4.10e-10 1.39e+03  -6.4 5.64e-02    -  3.60e-01 4.69e-01f  1
 206r 8.4437203e-03 4.80e-10 1.09e+02  -6.4 2.85e-02    -  7.69e-01 1.00e+00f  1
 207r 2.2529954e-02 2.68e-10 6.86e+01  -6.4 1.31e-02    -  3.73e-01 1.00e+00f  1
 208r 4.6056122e-02 2.70e-10 9.86e+00  -6.4 2.72e-02    -  8.56e-01 1.00e+00f  1
 209r 2.1300099e-01 5.45e-10 5.33e+00  -6.4 4.11e-02    -  4.59e-01 1.00e+00f  1
iter    objective    inf_pr   inf_du lg(mu)  ||d||  lg(rg) alpha_du alpha_pr  ls
 210r 4.9887656e-01 1.63e-10 7.45e-02  -6.4 2.61e-02    -  9.86e-01 1.00e+00f  1
 211r 1.8941346e+01 1.00e-10 2.01e-02  -6.4 1.43e+00    -  7.30e-01 1.00e+00f  1
 212r 5.4667766e+01 1.24e-10 2.49e-03  -6.4 9.09e-02    -  8.76e-01 1.00e+00f  1
 213r 1.7194755e+02 1.50e-10 4.55e-12  -6.4 6.27e-02    -  1.00e+00 1.00e+00f  1
 214r 8.9697928e+01 2.54e-10 1.96e+00  -9.0 6.54e-01    -  9.99e-01 9.56e-01f  1
 215r 8.6192526e+01 2.27e-10 1.14e-13  -9.0 2.63e-02    -  1.00e+00 1.00e+00f  1
 216r 4.3131698e+01 9.89e-11 2.50e-07 -11.0 3.67e-01    -  1.00e+00 1.00e+00h  1
 217  4.3131697e+01 1.86e-10 1.09e+05  -8.6 7.59e+03  -9.5 2.71e-04 8.21e-10f 19
 218  4.3131696e+01 9.91e-11 1.09e+05  -8.6 8.03e+03  -9.9 2.71e-04 3.32e-09f 17
 219  4.3131696e+01 3.01e-11 1.09e+05  -8.6 5.98e+03 -10.4 4.31e-04 1.77e-11f 25
iter    objective    inf_pr   inf_du lg(mu)  ||d||  lg(rg) alpha_du alpha_pr  ls
 220  4.3131696e+01 3.01e-11 1.09e+05  -8.6 4.10e+03 -10.9 8.39e-04 6.29e-15f 37
 221  4.3131696e+01 2.67e-11 1.09e+05  -8.6 2.50e+03 -11.4 2.03e-03 2.05e-14f 36
 222  4.2671806e+01 2.91e-09 1.08e+05  -8.6 1.06e+03 -11.9 6.45e-03 1.66e-03f  1
 223  4.0703225e+01 3.76e-09 9.65e+04  -8.6 3.51e+00 -12.3 1.07e-01 7.59e-03f  1
 224  3.9699502e+01 5.30e-09 9.11e+04  -8.6 5.01e+00 -12.8 5.82e-02 6.52e-03f  1
 225  3.9267212e+01 5.62e-09 8.87e+04  -8.6 3.28e+00 -13.3 2.67e-02 3.39e-03f  1
 226  3.9058445e+01 5.64e-09 8.67e+04  -8.6 7.55e-01 -13.8 2.34e-02 1.77e-03f  1
 227  3.8669385e+01 5.51e-09 8.48e+04  -8.6 1.32e+00 -14.2 2.18e-02 3.48e-03f  1
 228  3.8171855e+01 5.49e-09 8.11e+04  -8.6 2.61e+00 -14.7 4.49e-02 4.70e-03f  1
 229  3.7170159e+01 5.29e-09 5.29e+04  -8.6 2.95e+00 -15.2 3.50e-01 1.04e-02f  1
iter    objective    inf_pr   inf_du lg(mu)  ||d||  lg(rg) alpha_du alpha_pr  ls
 230  3.4431828e+01 5.23e-09 2.08e+04  -8.6 3.52e+00 -15.7 6.08e-01 4.55e-02f  1
 231  2.9515348e+01 5.24e-09 2.67e+02  -8.6 8.65e+00 -16.2 9.99e-01 1.22e-01f  1
 232  1.5583385e+01 5.28e-09 4.14e+01  -8.6 2.06e-02  -2.3 1.00e+00 4.71e-01f  1
 233  6.3276392e+00 2.15e-09 1.15e+08  -8.6 9.45e-03  -2.8 5.51e-06 5.94e-01f  1
 234  5.3061248e+00 1.80e-09 9.63e+07  -8.6 4.74e-02  -3.3 7.25e-03 1.61e-01f  1
 235  4.9955495e+00 1.69e-09 9.07e+07  -8.6 2.17e-01  -3.7 8.84e-02 5.84e-02f  1
 236  4.9955575e+00 4.12e-09 9.07e+07  -8.6 4.32e+00  -3.3 4.39e-05 2.75e-06h  9
 237  4.9955816e+00 5.88e-09 9.07e+07  -8.6 1.30e+01  -3.8 2.99e-06 8.31e-07h  9
 238r 4.9955816e+00 5.88e-09 1.00e+03  -8.2 0.00e+00  -3.4 0.00e+00 4.15e-07R  9
 239r 4.9956165e+00 1.75e-09 9.97e+02  -8.2 3.68e-03    -  3.01e-02 9.91e-04f  1
iter    objective    inf_pr   inf_du lg(mu)  ||d||  lg(rg) alpha_du alpha_pr  ls
 240  4.9936307e+00 1.79e-09 1.09e+05  -8.6 4.87e-02  -3.8 9.69e-05 4.09e-05f  1
 241  4.9867000e+00 1.82e-09 1.09e+05  -8.6 2.48e-01  -4.3 7.00e-05 1.27e-04f  1
 242  4.9766099e+00 1.86e-09 1.09e+05  -8.6 9.35e-01  -4.8 1.57e-04 1.73e-04f  1
 243  4.9654602e+00 1.91e-09 1.09e+05  -8.6 1.44e+00  -5.3 6.65e-04 2.37e-04f  1
 244  4.9501459e+00 2.07e-09 1.07e+05  -8.6 3.63e-01  -5.7 1.48e-02 4.33e-04f  1
 245  4.8298424e+00 3.55e-09 1.06e+05  -8.6 4.04e-01  -6.2 1.33e-02 3.89e-03f  1
 246  4.7049437e+00 4.74e-09 1.05e+05  -8.6 5.05e-01  -6.7 6.49e-03 4.54e-03f  1
 247  4.6132395e+00 5.32e-09 1.04e+05  -8.6 4.76e-01  -7.2 1.16e-02 3.59e-03f  1
 248  4.5611314e+00 5.52e-09 1.02e+05  -8.6 4.23e-01  -7.7 1.59e-02 2.24e-03f  1
 249  4.5157335e+00 5.51e-09 9.96e+04  -8.6 3.94e-01  -8.1 2.79e-02 2.14e-03f  1
iter    objective    inf_pr   inf_du lg(mu)  ||d||  lg(rg) alpha_du alpha_pr  ls
 250  4.4829202e+00 5.54e-09 9.35e+04  -8.6 9.99e-01  -8.6 6.17e-02 1.75e-03f  1
 251  4.3849839e+00 5.45e-09 7.08e+04  -8.6 1.52e+00  -9.1 2.44e-01 6.42e-03f  1
 252  4.1511777e+00 5.40e-09 7.06e+03  -8.6 2.23e+00  -9.6 9.02e-01 2.55e-02f  1
 253  3.7348218e+00 5.37e-09 3.99e+02  -8.6 1.76e+01 -10.0 1.00e+00 9.45e-02f  1
 254  3.7330308e+00 5.37e-09 1.11e+06  -8.6 5.93e-01  -4.2 7.36e-08 4.79e-04f  1
 255  3.7319515e+00 5.37e-09 1.11e+06  -8.6 1.20e-01  -3.8 5.21e-05 2.88e-04f  1
 256  3.6937080e+00 5.43e-09 1.10e+06  -8.6 1.28e+00  -4.3 1.49e-06 1.01e-02f  1
 257  3.6936768e+00 5.43e-09 1.10e+06  -8.6 1.43e-02  -3.8 9.62e-05 8.43e-06f  1
 258  8.0414744e-01 1.20e-09 2.20e+08  -8.6 7.21e-03  -3.4 2.96e-04 7.80e-01f  1
 259  7.8659793e-01 1.17e-09 2.15e+08  -8.6 9.17e-02  -3.9 5.46e-01 2.14e-02f  1
iter    objective    inf_pr   inf_du lg(mu)  ||d||  lg(rg) alpha_du alpha_pr  ls
 260  2.8470488e-01 4.40e-10 8.10e+07  -8.6 1.18e-02  -4.4 5.02e-01 6.24e-01f  1
 261 -1.2103164e-02 3.23e-10 1.07e+06  -8.6 1.19e-02  -4.8 9.15e-01 9.87e-01f  1
 262 -1.5820035e-02 2.81e-10 6.40e+04  -8.6 1.77e-02  -5.3 9.59e-01 9.40e-01f  1
 263 -1.5819730e-02 2.48e-10 6.38e+04  -8.6 8.22e-02  -5.8 2.67e-03 1.92e-06h 13
 264 -1.5648945e-02 4.59e-10 6.38e+04  -8.6 4.86e-01  -6.3 7.14e-04 7.14e-04s 17
 265 -1.5439856e-02 3.96e-10 6.37e+04  -8.6 1.82e+00  -6.7 6.49e-04 6.49e-04s 17
 266 -1.5215306e-02 4.33e-10 6.37e+04  -8.6 7.03e+00  -7.2 4.99e-04 4.99e-04s 17
 267 -1.4778425e-02 5.57e-10 6.37e+04  -8.6 2.79e+01  -7.7 7.37e-04 7.37e-04s 17
 268 -1.4134737e-02 9.40e-10 6.36e+04  -8.6 1.18e+02  -8.2 6.88e-04 6.88e-04s 17
 269 -1.3504094e-02 1.34e-09 6.36e+04  -8.6 1.96e+03  -8.6 1.01e-04 1.01e-04s 17
iter    objective    inf_pr   inf_du lg(mu)  ||d||  lg(rg) alpha_du alpha_pr  ls
 270 -1.2550601e-02 1.92e-09 6.36e+04  -8.6 2.43e+02  -8.2 4.75e-04 4.75e-04s 17
 271 -1.1600283e-02 2.46e-09 6.36e+04  -8.6 9.64e+01  -7.8 4.24e-04 4.24e-04s 17
 272 -1.0178877e-02 3.30e-09 6.35e+04  -8.6 1.44e+03  -8.3 1.15e-04 1.15e-04s 17
 273 -6.6007738e-03 5.36e-09 6.35e+04  -8.6 1.71e+02  -7.8 9.52e-04 9.52e-04s 17
 274 -1.8174418e-04 9.11e-09 6.35e+04  -8.6 4.86e+03  -8.3 1.70e-04 1.70e-04s 17
 275r-1.8174418e-04 9.11e-09 1.00e+03  -8.0 0.00e+00  -7.9 0.00e+00 0.00e+00R  1
 276r-2.7281710e-04 8.94e-09 9.95e+02  -8.0 1.05e-02    -  1.27e-02 4.28e-03f  1
 277r-2.0973276e-03 7.93e-09 9.97e+02  -8.0 1.04e-02    -  1.32e-04 1.83e-02f  1
 278r-2.1751982e-03 7.89e-09 9.83e+02  -8.0 1.03e-02    -  7.40e-03 1.05e-03f  1
 279r-3.0121793e-03 7.41e-09 9.65e+02  -8.0 1.03e-02    -  5.72e-02 1.06e-02f  1
iter    objective    inf_pr   inf_du lg(mu)  ||d||  lg(rg) alpha_du alpha_pr  ls
 280r-1.5487325e-02 7.48e-11 8.95e+02  -8.0 1.02e-02    -  4.75e-02 7.25e-02f  1
 281r-1.4575186e-02 6.78e-10 7.36e+02  -8.0 9.49e-03    -  4.31e-01 1.75e-01f  1
 282r-1.5236425e-02 3.83e-10 5.00e+02  -8.0 8.24e-03    -  7.72e-03 3.41e-01h  1
 283r-1.3717820e-02 6.54e-10 7.10e+02  -8.0 5.69e-03    -  2.97e-01 1.00e+00h  1
 284r-1.2688586e-02 1.04e-10 4.91e+02  -8.0 1.09e-03    -  3.08e-01 3.15e-01h  1
 285r-7.9903432e-03 3.51e-10 3.41e+02  -8.0 1.55e-03    -  2.99e-01 1.00e+00h  1
 286r-3.8145742e-03 4.13e-10 1.35e+02  -8.0 1.56e-03    -  6.02e-01 1.00e+00h  1
 287 -3.8308519e-03 2.86e-10 1.09e+05  -8.6 3.50e+03  -8.4 2.85e-04 3.09e-07f 10
 288 -3.8309963e-03 3.42e-10 1.09e+05  -8.6 5.45e+03  -8.9 3.00e-04 3.34e-09f 17
 289 -3.8309963e-03 2.25e-10 1.09e+05  -8.6 4.88e+03  -9.3 5.32e-04 2.85e-13f 31
iter    objective    inf_pr   inf_du lg(mu)  ||d||  lg(rg) alpha_du alpha_pr  ls
 290 -3.8309963e-03 1.97e-10 1.09e+05  -8.6 3.48e+03  -9.8 1.19e-03 2.17e-13h 32
 291 -3.8309963e-03 1.97e-10 1.09e+05  -8.6 1.91e+03 -10.3 3.43e-03 3.16e-15h 39
 292 -1.9748501e-02 2.61e-09 1.07e+05  -8.6 5.98e+02 -10.8 1.48e-02 2.79e-03f  1
 293 -4.0583051e-02 3.98e-09 9.64e+04  -8.6 5.98e+00 -11.2 1.02e-01 7.64e-03f  1
 294 -4.8098761e-02 5.23e-09 9.53e+04  -8.6 4.69e+00 -11.7 1.18e-02 5.72e-03f  1
 295 -4.9649394e-02 5.29e-09 9.42e+04  -8.6 1.31e+00 -12.2 1.25e-02 1.61e-03f  1
 296 -5.0422082e-02 5.32e-09 9.30e+04  -8.6 4.68e-01 -12.7 1.24e-02 1.06e-03f  1
 297 -5.1632041e-02 5.19e-09 9.03e+04  -8.6 1.67e+00 -13.1 2.96e-02 2.16e-03f  1
 298 -5.2922668e-02 5.05e-09 8.64e+04  -8.6 2.83e+00 -13.6 4.41e-02 3.78e-03f  1
 299 -5.4185581e-02 5.40e-09 7.75e+04  -8.6 3.32e+00 -14.1 1.04e-01 7.90e-03f  1
iter    objective    inf_pr   inf_du lg(mu)  ||d||  lg(rg) alpha_du alpha_pr  ls
 300 -5.5143915e-02 5.52e-09 2.24e+04  -8.6 2.97e+00 -14.6 7.13e-01 1.88e-02f  1
 301 -5.6067654e-02 5.45e-09 4.03e+02  -8.6 8.21e+00 -15.1 1.00e+00 9.37e-02f  1
 302 -5.6066849e-02 5.45e-09 2.49e+06  -8.6 1.04e+03 -11.0 4.90e-09 1.80e-05h 13
 303 -5.3835441e-02 5.05e-09 4.31e+07  -8.6 4.33e+02 -10.6 2.12e-05 7.40e-02h  1
 304 -3.1523211e-02 2.13e-09 2.40e+07  -8.6 5.18e+02 -11.1 6.52e-04 5.78e-01h  1
 305 -3.1201445e-02 2.07e-09 2.27e+07  -8.6 2.15e+03 -11.5 5.23e-01 2.73e-02h  1
 306 -3.1122814e-02 2.05e-09 2.23e+07  -8.6 7.18e+03 -12.0 5.14e-01 1.20e-02h  6
 307 -2.5712445e-02 4.55e-08 2.23e+07  -8.6 4.18e+06  -9.8 2.40e-06 6.88e-05h  1
 308r-2.5712445e-02 4.55e-08 1.00e+03  -7.3 0.00e+00  -9.4 0.00e+00 3.97e-07R  5
 309r-2.6498893e-02 2.39e-08 1.27e+03  -7.3 2.14e-02    -  1.24e-02 9.91e-04f  1
iter    objective    inf_pr   inf_du lg(mu)  ||d||  lg(rg) alpha_du alpha_pr  ls
 310 -2.6810437e-02 2.39e-08 1.10e+05  -8.6 4.03e+03  -9.8 1.67e-03 1.59e-05f  1
 311 -2.8719042e-02 2.38e-08 1.08e+05  -8.6 4.28e+02 -10.3 1.20e-02 3.30e-04f  1
 312 -4.3010472e-02 2.20e-08 8.88e+04  -8.6 6.72e+00 -10.8 1.81e-01 5.10e-03f  1
 313 -5.2789400e-02 1.90e-08 8.81e+04  -8.6 5.34e+00 -11.3 7.72e-03 8.97e-03f  1
 314 -5.4899551e-02 1.79e-08 8.70e+04  -8.6 2.70e+00 -11.7 1.32e-02 3.08e-03f  1
 315 -5.6475000e-02 1.67e-08 8.62e+04  -8.6 1.08e+00 -12.2 9.14e-03 3.72e-03f  1
 316 -5.7550733e-02 1.54e-08 8.54e+04  -8.6 8.57e-01 -12.7 8.92e-03 3.79e-03f  1
 317 -5.8219990e-02 1.43e-08 8.47e+04  -8.6 8.25e-01 -13.2 8.80e-03 3.43e-03f  1
 318 -5.8629856e-02 1.33e-08 8.40e+04  -8.6 8.13e-01 -13.7 8.32e-03 2.92e-03f  1
 319 -5.9042517e-02 1.21e-08 8.33e+04  -8.6 1.16e+00 -14.1 7.66e-03 3.90e-03f  1
iter    objective    inf_pr   inf_du lg(mu)  ||d||  lg(rg) alpha_du alpha_pr  ls
 320 -5.9325098e-02 1.10e-08 8.26e+04  -8.6 1.31e+00 -14.6 8.44e-03 3.55e-03f  1
 321 -5.9497755e-02 1.01e-08 8.10e+04  -8.6 1.43e+00 -15.1 2.02e-02 2.83e-03f  1
 322 -5.9776629e-02 8.18e-09 7.82e+04  -8.6 1.52e+00 -15.6 3.40e-02 6.20e-03f  1
 323 -6.0075714e-02 5.50e-09 7.68e+04  -8.6 1.62e+00 -16.0 1.81e-02 9.54e-03f  1
 324 -6.0274809e-02 5.46e-09 7.50e+04  -8.6 1.67e+00 -16.5 2.35e-02 8.04e-03f  1
 325 -6.0529038e-02 5.41e-09 7.40e+04  -8.6 1.80e+00 -17.0 1.38e-02 1.26e-02f  1
 326 -6.0787516e-02 5.37e-09 2.46e+03  -8.6 2.00e+00 -17.5 1.00e+00 1.55e-02f  1
 327 -6.0787509e-02 5.37e-09 1.62e+04  -8.6 5.12e+04 -13.4 6.05e-09 1.04e-07h 11
 328 -6.0787492e-02 5.37e-09 1.94e+04  -8.6 2.48e+04 -13.0 5.08e-11 4.16e-07f  9
 329 -6.0783047e-02 5.37e-09 7.25e+04  -8.6 1.42e+04 -12.6 3.16e-05 1.07e-04h  1
iter    objective    inf_pr   inf_du lg(mu)  ||d||  lg(rg) alpha_du alpha_pr  ls
 330 -6.0782976e-02 5.37e-09 5.41e+04  -8.6 3.02e+04 -13.1 1.09e-04 1.67e-06h 18
 331 -5.5224748e-02 4.67e-09 1.68e+07  -8.6 6.06e+05 -13.5 1.26e-04 1.31e-01h  1
 332 -5.4173767e-02 2.91e-08 1.68e+07  -8.6 6.36e+04  -9.5 9.91e-05 1.57e-03h  2
 333 -5.4172807e-02 2.92e-08 1.68e+07  -8.6 3.35e+05 -10.0 4.02e-04 6.44e-07h 11
 334 -5.3780948e-02 3.59e-08 1.68e+07  -8.6 7.33e+04  -9.6 3.07e-04 3.07e-04s 12
 335 -5.3370777e-02 4.47e-08 1.68e+07  -8.6 4.35e+05 -10.0 1.87e-04 1.87e-04s 12
 336 -5.2958350e-02 5.02e-08 1.68e+07  -8.6 1.20e+05  -9.6 2.41e-04 2.41e-04s 12
 337r-5.2958350e-02 5.02e-08 1.00e+03  -7.3 0.00e+00 -10.1 0.00e+00 0.00e+00R  1
 338r-5.3836042e-02 1.25e-08 9.95e+02  -7.3 1.83e-02    -  3.83e-03 9.91e-04f  1
 339r-5.4134898e-02 5.63e-09 9.95e+02  -7.3 1.83e-02    -  2.04e-03 5.34e-03f  1
iter    objective    inf_pr   inf_du lg(mu)  ||d||  lg(rg) alpha_du alpha_pr  ls
 340 -5.4199949e-02 5.63e-09 1.16e+05  -8.6 3.75e+02 -10.6 8.56e-04 7.64e-06f  1
 341 -5.6997003e-02 5.75e-09 1.15e+05  -8.6 7.90e+00 -11.0 6.33e-03 7.34e-04f  1
 342 -6.0444852e-02 6.12e-09 1.14e+05  -8.6 2.25e+00 -11.5 7.01e-03 2.18e-03f  1
 343 -6.1240776e-02 6.32e-09 1.14e+05  -8.6 1.69e+00 -12.0 5.57e-03 1.20e-03f  1
 344 -6.1555426e-02 6.49e-09 1.14e+05  -8.6 1.72e+00 -12.5 2.13e-03 1.03e-03f  1
 345 -6.1682242e-02 6.58e-09 1.13e+05  -8.6 1.64e+00 -12.9 5.78e-03 6.31e-04f  1
 346 -6.1763016e-02 6.58e-09 1.12e+05  -8.6 1.35e+00 -13.4 3.66e-03 7.03e-04f  1
 347 -6.1892725e-02 6.52e-09 1.11e+05  -8.6 1.07e+00 -13.9 1.59e-02 1.49e-03f  1
 348 -6.2022186e-02 6.51e-09 1.10e+05  -8.6 5.88e-01 -14.4 9.29e-03 2.67e-03f  1
 349 -6.2132296e-02 6.49e-09 9.18e+04  -8.6 7.28e-01 -14.9 1.63e-01 3.03e-03f  1
iter    objective    inf_pr   inf_du lg(mu)  ||d||  lg(rg) alpha_du alpha_pr  ls
 350 -6.2559436e-02 6.20e-09 8.92e+04  -8.6 1.54e+00 -15.3 2.84e-02 2.93e-02f  1
 351 -6.2684222e-02 6.09e-09 1.74e+04  -8.6 2.09e+00 -15.8 8.06e-01 1.67e-02h  1
 352 -6.2814339e-02 5.93e-09 1.45e+04  -8.6 1.17e+01 -16.3 1.64e-01 1.02e-01h  1
 353 -6.2897258e-02 5.81e-09 8.86e+01  -8.6 1.40e+01 -16.8 1.00e+00 1.33e-01h  1
 354 -6.2893425e-02 5.81e-09 6.99e+06  -8.6 2.63e+04 -12.7 9.12e-09 6.07e-05h  3
 355r-6.2893425e-02 5.81e-09 1.00e+03  -8.2 0.00e+00 -12.3 0.00e+00 4.05e-07R 10
 356r-6.2878670e-02 5.85e-09 9.99e+02  -8.2 6.43e-03    -  3.29e-03 1.68e-04f  1
 357 -6.2888471e-02 5.85e-09 1.05e+05  -8.6 3.66e+01 -12.8 9.97e-02 8.79e-06f  1
 358 -6.2953127e-02 5.83e-09 7.22e+04  -8.6 1.85e+00 -13.2 3.09e-01 7.68e-03f  1
 359 -6.3025072e-02 5.76e-09 1.55e+04  -8.6 2.81e+00 -13.7 7.86e-01 6.37e-02f  1
iter    objective    inf_pr   inf_du lg(mu)  ||d||  lg(rg) alpha_du alpha_pr  ls
 360 -6.3319932e-02 5.34e-09 8.64e+02  -8.6 1.31e+01 -14.2 9.45e-01 8.40e-01h  1
 361 -6.3377226e-02 5.34e-09 2.11e+00  -8.6 2.37e+02 -14.7 9.98e-01 1.00e+00f  1
 362 -6.3376905e-02 5.34e-09 6.11e+04  -8.6 1.56e+04 -12.4 4.29e-05 8.23e-06h  4
 363 -6.3376860e-02 5.34e-09 1.88e+05  -8.6 4.12e+04 -12.9 5.18e-05 1.19e-06h  7
 364 -6.3370660e-02 5.34e-09 5.19e+03  -8.6 1.71e+04 -12.5 5.61e-05 1.58e-04h  1
 365 -6.3370563e-02 5.34e-09 6.73e+05  -8.6 4.44e+04 -13.0 2.06e-04 2.39e-06h  9
 366 -6.3342070e-02 5.34e-09 5.60e+05  -8.6 1.88e+04 -12.6 2.15e-04 6.97e-04h  1
 367 -6.3342567e-02 5.34e-09 4.24e+05  -8.6 1.09e+03  -9.4 2.44e-01 1.76e-06h  1
 368 -6.3433427e-02 5.34e-09 6.83e+04  -8.6 4.57e+01  -9.9 8.39e-01 1.53e-01f  1
 369 -6.3439129e-02 5.38e-09 5.67e+04  -8.6 1.67e-03  -4.0 1.70e-01 1.00e+00f  1
iter    objective    inf_pr   inf_du lg(mu)  ||d||  lg(rg) alpha_du alpha_pr  ls
 370 -6.3424031e-02 5.38e-09 3.03e+05  -8.6 1.19e-03  -4.5 2.98e-05 3.28e-04h  1
 371 -6.3423899e-02 5.38e-09 4.76e+05  -8.6 3.50e-03  -5.0 2.22e-05 2.85e-06h  8
 372 -6.3405216e-02 5.38e-09 4.62e+05  -8.6 1.00e-02  -5.5 3.61e-04 4.03e-04h  1
 373 -6.3405205e-02 5.38e-09 5.21e+05  -8.6 2.62e-02  -6.0 4.60e-04 2.33e-07f 23
 374 -1.8358214e-02 3.05e-09 1.01e+08  -8.6 5.73e-02  -6.4 7.89e-04 9.72e-01h  1
 375 -1.6276654e-02 4.15e-09 1.01e+08  -8.6 1.09e+02  -6.9 3.13e-05 4.59e-05h  6
 376r-1.6276654e-02 4.15e-09 1.00e+03  -8.4 0.00e+00  -7.4 0.00e+00 4.68e-07R 12
 377r-1.6316814e-02 4.86e-09 9.70e+02  -8.4 8.33e-03    -  8.03e-02 9.90e-04f  1
 378 -1.6604135e-02 5.38e-09 1.16e+05  -8.6 4.58e+02  -7.9 2.80e-03 1.83e-05f  1
 379 -2.3454959e-02 6.64e-09 1.14e+05  -8.6 4.97e+00  -8.3 1.71e-02 1.40e-03f  1
iter    objective    inf_pr   inf_du lg(mu)  ||d||  lg(rg) alpha_du alpha_pr  ls
 380 -3.8684423e-02 3.00e-09 1.05e+05  -8.6 6.60e+00  -8.8 7.65e-02 5.48e-03f  1
 381 -5.2621186e-02 5.26e-09 1.05e+05  -8.6 2.52e+00  -9.3 5.73e-03 9.53e-03f  1
 382 -5.6139457e-02 5.61e-09 1.04e+05  -8.6 6.01e-01  -9.8 7.39e-03 3.60e-03f  1
 383 -5.8562134e-02 5.85e-09 1.03e+05  -8.6 8.45e-01 -10.3 6.01e-03 3.62e-03f  1
 384 -5.9875323e-02 5.76e-09 1.03e+05  -8.6 2.26e+00 -10.7 6.34e-03 2.95e-03f  1
 385 -6.0722229e-02 5.78e-09 1.02e+05  -8.6 2.59e+00 -11.2 6.26e-03 2.80e-03f  1
 386 -6.1199847e-02 5.86e-09 1.01e+05  -8.6 2.70e+00 -11.7 6.25e-03 2.34e-03f  1
 387 -6.1372323e-02 5.87e-09 9.97e+04  -8.6 2.76e+00 -12.2 1.77e-02 1.23e-03f  1
 388 -6.1836491e-02 5.67e-09 9.81e+04  -8.6 2.68e+00 -12.6 1.64e-02 5.52e-03f  1
 389 -6.2043273e-02 5.59e-09 8.97e+04  -8.6 2.57e+00 -13.1 8.58e-02 4.41e-03f  1
iter    objective    inf_pr   inf_du lg(mu)  ||d||  lg(rg) alpha_du alpha_pr  ls
 390 -6.2219160e-02 5.54e-09 6.93e+04  -8.6 2.50e+00 -13.6 2.28e-01 1.22e-02f  1
 391 -6.2347543e-02 5.51e-09 8.11e+02  -8.6 3.02e+00 -14.1 1.00e+00 2.99e-02h  1
 392 -6.2313930e-02 5.51e-09 2.18e+06  -8.6 3.86e+03 -11.8 3.97e-08 5.54e-04h  1
 393 -6.2313917e-02 5.51e-09 2.18e+06  -8.6 1.42e+03 -11.4 6.94e-05 2.38e-07h 23
 394 -1.4035001e-02 3.34e-09 3.23e+08  -8.6 4.22e+03 -11.9 1.08e-05 1.00e+00h  1
 395 -1.4752562e-02 1.51e-09 2.94e+08  -8.6 1.60e+03 -11.5 6.47e-01 8.87e-02f  1
 396 -2.3029430e-02 2.14e-09 1.62e+08  -8.6 5.11e+03 -11.9 5.60e-01 4.49e-01f  1
 397 -2.6880569e-02 2.54e-09 1.41e+05  -8.6 1.79e+03 -11.5 8.87e-01 1.00e+00f  1
 398 -3.4422222e-02 9.77e-10 7.61e+04  -8.6 5.38e+03 -12.0 7.52e-01 6.18e-01f  1
 399 -3.4422212e-02 2.39e-09 3.51e+05  -8.6 1.84e-01  -4.1 1.00e+00 7.86e-02f  2
iter    objective    inf_pr   inf_du lg(mu)  ||d||  lg(rg) alpha_du alpha_pr  ls
 400 -3.4318287e-02 1.10e-09 9.60e+03  -8.6 8.96e-03  -4.6 9.73e-01 6.54e-01h  1
 401 -3.4318437e-02 6.20e-10 1.55e-08  -8.6 1.94e-03  -5.1 1.00e+00 1.00e+00F  1

Number of Iterations....: 401

                                   (scaled)                 (unscaled)
Objective...............:  -3.4318436707625632e-02   -3.4318436707625632e-02
Dual infeasibility......:   1.5471009816166113e-08    1.5471009816166113e-08
Constraint violation....:   6.2039225882092600e-10    6.2039225882092600e-10
Complementarity.........:   3.8500104640017894e-09    3.8500104640017894e-09
Overall NLP error.......:   1.8098960785021635e-09    1.5471009816166113e-08


Number of objective function evaluations             = 1155
Number of objective gradient evaluations             = 338
Number of equality constraint evaluations            = 1155
Number of inequality constraint evaluations          = 0
Number of equality constraint Jacobian evaluations   = 410
Number of inequality constraint Jacobian evaluations = 0
Number of Lagrangian Hessian evaluations             = 401
Total CPU secs in IPOPT (w/o function evaluations)   =    196.504
Total CPU secs in NLP function evaluations           =     26.251

EXIT: Optimal Solution Found.

************************ CUTEst statistics ************************


 Package used            :  IPOPT
 Problem                 :  A5NNSNSL  
 # variables             =           60012
 # constraints           =           20004
 # objective functions   =        0.1494000E+04
 # objective gradients   =        0.3390000E+03
 # objective Hessians    =        0.3910000E+03
 # Hessian-vector prdct  =        0.0000000E+00
 # constraints functions =        0.1567000E+04
 # constraints gradients =        0.4120000E+03
 # constraints Hessians  =        0.3910000E+03
 Exit code               =               0
 Final f                 =       -3.4318436707625632D-02
 Bounds feasibility      =        9.9999986044266833D-09
 Set up time             =            0.77 seconds
 Solve time              =          399.57 seconds


******************************************************************

